PROBLEM NAME: eil51_n7
KNAPSACK DATA TYPE: multiple strongly correlated
DIMENSION: 7
NUMBER OF ITEMS: 30
CAPACITY OF KNAPSACK: 1499
MIN SPEED: 0.1
MAX SPEED: 1
RENTING RATIO: 7.24
EDGE_WEIGHT_TYPE: CEIL_2D
NODE_COORD_SECTION	(INDEX, X, Y):
1	42	57
2	7	38
3	30	48
4	45	35
5	5	6
6	56	37
7	30	40
ITEMS SECTION	(INDEX, PROFIT, WEIGHT, ASSIGNED NODE NUMBER):
1	1194	994	3
2	1192	992	3
3	1093	893	3
4	1074	874	3
5	1020	720	3
6	1015	815	7
7	994	794	7
8	991	791	7
9	966	766	7
10	900	700	7
11	867	667	2
12	849	649	2
13	833	633	2
14	817	617	2
15	798	598	2
16	744	544	5
17	706	506	5
18	657	457	5
19	646	446	5
20	628	428	5
21	622	422	4
22	619	419	4
23	616	416	4
24	559	359	4
25	534	334	4
26	437	237	6
27	396	196	6
28	331	131	6
29	294	94	6
30	207	7	6
